NAME: rat195
COMMENT: Quick (5min) local search tour for rat195 (2570.660884064464)
TYPE: TOUR
DIMENSION: 195
TOUR_SECTION: 1 2 3 4 5 6 8 7 17 18 19 20 21 22 23 9 10 11 12 13 25 24 26 38 37 36 35 34 46 47 48 49 50 39 52 51 63 64 65 78 77 76 75 62 61 60 59 71 72 73 74 126 125 124 123 122 121 120 119 118 131 144 145 146 158 157 170 183 184 185 186 187 188 189 190 191 192 193 194 195 182 181 180 167 168 169 179 178 177 176 175 174 173 172 171 159 160 161 162 163 164 165 166 153 152 151 150 149 148 147 132 133 134 135 136 137 138 139 140 141 154 155 156 143 142 130 117 116 115 128 129 127 114 113 112 111 110 109 108 107 106 105 92 93 94 95 96 97 98 99 100 101 102 103 104 91 90 89 88 87 86 85 84 83 82 81 80 79 66 67 68 69 70 58 57 56 55 54 53 40 41 42 43 44 45 33 32 31 30 29 28 27 16 15 14 -1
EOF